clingo version 5.6.2
Reading from ...togen_asp_scripts/ijp_expt_cases-12.dl
Solving...
UNSATISFIABLE

Models       : 0
Calls        : 1
Time         : 11.291s (Solving: 11.11s 1st Model: 0.00s Unsat: 11.11s)
CPU Time     : 11.280s
